Minimize
 obj: 10 e1 + 5 e2 + 2 e3
Subject To
 c1: 2 e1 >= 1
 c2: 2 e1 + e2 >= 1
 c3: 2 e1 + e2 + e3 >= 1
 c4: e2 + e3 >= 1
 c5: e3 >= 1
Bounds
 0 <= e1 <= 1
 0 <= e2 <= 1
 0 <= e3 <= 1
General
 e1
 e2
 e3
End

